W=6;
H=5;

MAX_TIME=21;
MAX_TRACKS=15;

TARGET=(5,6);

TRAINS=[(5,1,RIGHT),(3,1,RIGHT),(1,1,RIGHT)];
DECOYS=[];

INIT_POS=[
(1,1,STRAIGHT_RL),
(1,3,ESWITCH_L_R_D),
(2,6,STRAIGHT_TD),
(3,1,STRAIGHT_RL),
(3,3,DSWITCH_D_T_L),
(3,5,ESWITCH_D_T_R),
(5,1,STRAIGHT_RL),
(5,3,ESWITCH_R_L_T),
(5,5,DSWITCH_R_L_T),
(5,6,STRAIGHT_RL),
];
TUNNEL_PAIRS=[];

GATES=[];
ACTIVATIONS=[
(2,6,1),
];

DSWITCHES=[
(3,3,1),
(5,5,1),
];
STATIONS=[];

SEMAPHORE_SUPPLY=0;
